Minimize
	value: tt

Subject to
tt + 1024 s_1_1 > 0.0
tt - t_1_1 - 1024.000000 s_1_1 > -1022.255000
tt + 1024 s_2_1 > 0.0
tt - t_2_1 - 1024.000000 s_2_1 > -1020.861500
tt + 1024 s_1_2 > 0.0
tt - t_1_2 - 1024.000000 s_1_2 > -1022.716500
tt + 1024 s_2_2 > 0.0
tt - t_2_2 - 1024.000000 s_2_2 > -1021.921375
tt + 1024 s_1_3 > 0.0
tt - t_1_3 - 1024.000000 s_1_3 > -1020.482400
tt + 1024 s_2_3 > 0.0
tt - t_2_3 - 1024.000000 s_2_3 > -1018.787571
tt + 1024 s_1_4 > 0.0
tt - t_1_4 - 1024.000000 s_1_4 > -1018.339700
tt + 1024 s_2_4 > 0.0
tt - t_2_4 - 1024.000000 s_2_4 > -1015.333968
tt + 1024 s_1_5 > 0.0
tt - t_1_5 - 1028.000000 s_1_5 + 4.000000 s_1_2 > -1023.929300
tt + 1024 s_2_5 > 0.0
tt - t_2_5 - 1028.000000 s_2_5 + 4.000000 s_2_2 > -1022.860375
s_1_1 + s_2_1  = 1
s_1_2 + s_2_2  = 1
s_1_3 + s_2_3  = 1
s_1_4 + s_2_4  = 1
s_1_5 + s_2_5  = 1
s_1_1 + s_1_2 + 1024 r_1_1_2 >= 2
- s_1_1 - s_1_2 - 1024 r_1_1_2 >= -1025
t_1_1 - t_1_2 - 1024.000000 u_1_1_2 + 2048.000000 r_1_1_2 > -1022.716500
s_2_1 + s_2_2 + 1024 r_2_1_2 >= 2
- s_2_1 - s_2_2 - 1024 r_2_1_2 >= -1025
t_2_1 - t_2_2 - 1024.000000 u_2_1_2 + 2048.000000 r_2_1_2 > -1021.921375
s_1_1 + s_1_3 + 1024 r_1_1_3 >= 2
- s_1_1 - s_1_3 - 1024 r_1_1_3 >= -1025
t_1_1 - t_1_3 - 1024.000000 u_1_1_3 + 2048.000000 r_1_1_3 > -1020.482400
s_2_1 + s_2_3 + 1024 r_2_1_3 >= 2
- s_2_1 - s_2_3 - 1024 r_2_1_3 >= -1025
t_2_1 - t_2_3 - 1024.000000 u_2_1_3 + 2048.000000 r_2_1_3 > -1018.787571
s_1_1 + s_1_4 + 1024 r_1_1_4 >= 2
- s_1_1 - s_1_4 - 1024 r_1_1_4 >= -1025
t_1_1 - t_1_4 - 1024.000000 u_1_1_4 + 2048.000000 r_1_1_4 > -1018.339700
s_2_1 + s_2_4 + 1024 r_2_1_4 >= 2
- s_2_1 - s_2_4 - 1024 r_2_1_4 >= -1025
t_2_1 - t_2_4 - 1024.000000 u_2_1_4 + 2048.000000 r_2_1_4 > -1015.333968
t_1_5 - t_1_1 - 1024.000000 s_1_1 > -1022.255000
t_1_5 - t_2_1 - 1024.000000 s_2_1 > -1020.861500
t_2_5 - t_1_1 - 1024.000000 s_1_1 > -1022.255000
t_2_5 - t_2_1 - 1024.000000 s_2_1 > -1020.861500
s_1_2 + s_1_1 + 1024 r_1_1_2 >= 2
- s_1_2 - s_1_1 - 1024 r_1_1_2 >= -1025
t_1_2 - t_1_1 + 1024.000000 u_1_1_2 + 2048.000000 r_1_1_2 > 1.745000
s_2_2 + s_2_1 + 1024 r_2_1_2 >= 2
- s_2_2 - s_2_1 - 1024 r_2_1_2 >= -1025
t_2_2 - t_2_1 + 1024.000000 u_2_1_2 + 2048.000000 r_2_1_2 > 3.138500
s_1_2 + s_1_3 + 1024 r_1_2_3 >= 2
- s_1_2 - s_1_3 - 1024 r_1_2_3 >= -1025
t_1_2 - t_1_3 - 1024.000000 u_1_2_3 + 2048.000000 r_1_2_3 > -1020.482400
s_2_2 + s_2_3 + 1024 r_2_2_3 >= 2
- s_2_2 - s_2_3 - 1024 r_2_2_3 >= -1025
t_2_2 - t_2_3 - 1024.000000 u_2_2_3 + 2048.000000 r_2_2_3 > -1018.787571
s_1_2 + s_1_4 + 1024 r_1_2_4 >= 2
- s_1_2 - s_1_4 - 1024 r_1_2_4 >= -1025
t_1_2 - t_1_4 - 1024.000000 u_1_2_4 + 2048.000000 r_1_2_4 > -1018.339700
s_2_2 + s_2_4 + 1024 r_2_2_4 >= 2
- s_2_2 - s_2_4 - 1024 r_2_2_4 >= -1025
t_2_2 - t_2_4 - 1024.000000 u_2_2_4 + 2048.000000 r_2_2_4 > -1015.333968
t_1_5 - t_1_2 - 1024.000000 s_1_2 > -1022.716500
t_1_5 - t_2_2 - 1024.000000 s_2_2 > -1021.921375
t_2_5 - t_1_2 - 1024.000000 s_1_2 > -1022.716500
t_2_5 - t_2_2 - 1024.000000 s_2_2 > -1021.921375
s_1_3 + s_1_1 + 1024 r_1_1_3 >= 2
- s_1_3 - s_1_1 - 1024 r_1_1_3 >= -1025
t_1_3 - t_1_1 + 1024.000000 u_1_1_3 + 2048.000000 r_1_1_3 > 1.745000
s_2_3 + s_2_1 + 1024 r_2_1_3 >= 2
- s_2_3 - s_2_1 - 1024 r_2_1_3 >= -1025
t_2_3 - t_2_1 + 1024.000000 u_2_1_3 + 2048.000000 r_2_1_3 > 3.138500
s_1_3 + s_1_2 + 1024 r_1_2_3 >= 2
- s_1_3 - s_1_2 - 1024 r_1_2_3 >= -1025
t_1_3 - t_1_2 + 1024.000000 u_1_2_3 + 2048.000000 r_1_2_3 > 1.283500
s_2_3 + s_2_2 + 1024 r_2_2_3 >= 2
- s_2_3 - s_2_2 - 1024 r_2_2_3 >= -1025
t_2_3 - t_2_2 + 1024.000000 u_2_2_3 + 2048.000000 r_2_2_3 > 2.078625
s_1_3 + s_1_4 + 1024 r_1_3_4 >= 2
- s_1_3 - s_1_4 - 1024 r_1_3_4 >= -1025
t_1_3 - t_1_4 - 1024.000000 u_1_3_4 + 2048.000000 r_1_3_4 > -1018.339700
s_2_3 + s_2_4 + 1024 r_2_3_4 >= 2
- s_2_3 - s_2_4 - 1024 r_2_3_4 >= -1025
t_2_3 - t_2_4 - 1024.000000 u_2_3_4 + 2048.000000 r_2_3_4 > -1015.333968
t_1_5 - t_1_3 - 1024.000000 s_1_3 > -1020.482400
t_1_5 - t_2_3 - 1024.000000 s_2_3 > -1018.787571
t_2_5 - t_1_3 - 1024.000000 s_1_3 > -1020.482400
t_2_5 - t_2_3 - 1024.000000 s_2_3 > -1018.787571
s_1_4 + s_1_1 + 1024 r_1_1_4 >= 2
- s_1_4 - s_1_1 - 1024 r_1_1_4 >= -1025
t_1_4 - t_1_1 + 1024.000000 u_1_1_4 + 2048.000000 r_1_1_4 > 1.745000
s_2_4 + s_2_1 + 1024 r_2_1_4 >= 2
- s_2_4 - s_2_1 - 1024 r_2_1_4 >= -1025
t_2_4 - t_2_1 + 1024.000000 u_2_1_4 + 2048.000000 r_2_1_4 > 3.138500
s_1_4 + s_1_2 + 1024 r_1_2_4 >= 2
- s_1_4 - s_1_2 - 1024 r_1_2_4 >= -1025
t_1_4 - t_1_2 + 1024.000000 u_1_2_4 + 2048.000000 r_1_2_4 > 1.283500
s_2_4 + s_2_2 + 1024 r_2_2_4 >= 2
- s_2_4 - s_2_2 - 1024 r_2_2_4 >= -1025
t_2_4 - t_2_2 + 1024.000000 u_2_2_4 + 2048.000000 r_2_2_4 > 2.078625
s_1_4 + s_1_3 + 1024 r_1_3_4 >= 2
- s_1_4 - s_1_3 - 1024 r_1_3_4 >= -1025
t_1_4 - t_1_3 + 1024.000000 u_1_3_4 + 2048.000000 r_1_3_4 > 3.517600
s_2_4 + s_2_3 + 1024 r_2_3_4 >= 2
- s_2_4 - s_2_3 - 1024 r_2_3_4 >= -1025
t_2_4 - t_2_3 + 1024.000000 u_2_3_4 + 2048.000000 r_2_3_4 > 5.212429
t_1_5 - t_1_4 - 1024.000000 s_1_4 > -1018.339700
t_1_5 - t_2_4 - 1024.000000 s_2_4 > -1015.333968
t_2_5 - t_1_4 - 1024.000000 s_1_4 > -1018.339700
t_2_5 - t_2_4 - 1024.000000 s_2_4 > -1015.333968
Binary
s_1_1
s_2_1
s_1_2
s_2_2
s_1_3
s_2_3
s_1_4
s_2_4
s_1_5
s_2_5
u_1_1_2
r_1_1_2
u_2_1_2
r_2_1_2
u_1_1_3
r_1_1_3
u_2_1_3
r_2_1_3
u_1_1_4
r_1_1_4
u_2_1_4
r_2_1_4
u_1_2_3
r_1_2_3
u_2_2_3
r_2_2_3
u_1_2_4
r_1_2_4
u_2_2_4
r_2_2_4
u_1_3_4
r_1_3_4
u_2_3_4
r_2_3_4

End
